(declare-const |param0':227| Int)
(declare-const |return':226| Int)
(assert (and (<= (+ |param0':227| -20) 0)
               (or (< (+ |return':226| -6765) 0)
                     (< (+ (- |return':226|) 6765) 0))))
(check-sat)
